db/data/1378232740311111889411991220811862816844.z3.out
solvers/z3/run.sh: line 2: 168009 Killed                  z3 -smt2 $1
-------------------
91.701714633
